
 102   30
  10   10   10   10   10   10   10   10   10   10   10   10   10   10   10   10   10   10   10   10   10   10   10   10   10   10   10   10   10   10

   0   0   0   0   0   0   0   0   0   0   0   0   0   0   0   0   0   0   0   0   0   0   0   0   0   0   0   0   0   0   0  24 2 3 4 5 6 7 8 10 11 12 13 15 16 18 19 21 22 24 26 28 29 31 40 47 
   7   0   0   0   0   0   0   1   0   0   0   0   0   0   0   0   0   0   0   4   0   0   0   0   0   1   0   0   0   0   0  12 67 59 55 54 53 49 46 44 39 37 34 9 
   2   2   0   0   0   0   0   0   0   0   0   0   0   0   0   0   0   0   0   0   0   0   1   0   0   0   0   0   0   0   0  17 99 77 69 68 64 62 60 56 55 53 51 48 45 44 43 36 17 
   8   0   0   0   0   0   0   0   0   0   0   0   0   0   0   0   0   0   0   0   0   0   0   0   0   0   0   0   0   0   1  16 100 79 67 60 58 55 51 50 49 45 44 39 38 34 33 32 
   5   9   0   0   1   0   0   0   0   0   0   0   0   1   1   0   0   0   0   0   0   0   0   0   0   0   2   0   0   0   0  11 79 78 77 59 57 56 55 52 38 30 14 
   6   0   0   0   0   0   0   0   0   0   0   0   0   0   0   0   0   0   0   5   0   0   0   0   0   0   4   0   0   0   0  20 100 99 79 78 77 76 68 67 64 62 61 59 57 55 53 49 45 44 43 27 
   4   0   0   0   0   0   0   0   0   1   0   0   0   0   0   0   0   2   0   0   0   1   0   0   0   0   0   0   0   1   0  17 101 100 99 79 77 76 66 64 63 62 61 56 54 53 51 43 20 
   3   0   0   0   0   0   0   0   0   0   0   0   0   0   0   0   0   0   1   5   0   0   0   0   0   8   0   0   0   0   0  13 99 98 79 76 67 66 64 59 51 45 42 30 27 
  10   0   0   0   3   1   0   4   0   6   0   0   1   0   5   0   0   0   0   0   0   2   0   0   0   0   0   0   0   0   0  15 101 100 97 78 77 76 69 64 62 60 57 50 48 43 25 
   5   0   3   0   5   9   0   0   0   0   0   0   9   0   0   0   0   0   0   0   0   0   0   0   0   0   0   0   0   0   4  12 101 100 77 75 54 49 45 42 41 39 38 23 
   3   0   7   0   0   0   0   0   0   0   0   0   0   0   0   0   0   6   0   0   0   6   0   0   2   0   0   0   0   4   0  19 100 99 94 79 77 68 65 64 61 60 59 58 56 53 50 45 44 43 38 
   8   0   0   0   2   0   0   7   0   0   0   0   0   0   0   0   0   0   0   0   0   0   7   0   0   0   0   1   0   0   0  15 99 98 78 77 71 67 62 61 60 54 51 48 44 41 38 
   4   0   0   0   5   0   0   0   1   0   0   0   0   0   0   1   0   0   0   0   0   0   0   0   6   0  10   0   0   0   0  11 97 77 75 66 64 59 54 49 48 41 36 
   7   0   0   0   0   0   0   0   0   0   0   0   0   0   0   0   0   0   0   0   0   0   0   2   0   0   0   0   0   0   7  24 100 99 98 97 96 93 92 91 90 76 75 74 71 70 68 67 66 62 61 60 58 54 50 48 
   7   0   0   0   8   0   0   0   0   0   0   2   0   0   0   0   0   0   0   0   0   0   7   0   0   0   6   0   0   0   0  17 100 98 95 77 76 75 74 67 64 61 60 59 57 56 53 52 48 
   9   0   0   0   0   0   0   6   0   0   2   0   0   0   0   0   0   0   0   0   1   5   0   0   0   0   0   0   0   7   0  11 101 77 76 72 66 64 59 54 44 35 27 
   3   9   0   0   0   0   0   0   0   0   0   0   0   0   0   0   0   0   0   0   0   0   0   0   0   0   0   0   0   0   0  15 100 97 93 79 76 75 73 70 66 65 61 58 57 50 49 
   7   0   0   0   0   0   0   0   0   0   0   0   0   0   0   0   0   0   5   0   0   0   0   0   0   3   0   0   3   5   0  21 101 99 98 97 96 94 93 91 89 88 87 86 79 76 73 68 66 65 64 62 53 
   5   0   0   0   0   0   0   0   9   0   0   0   0   0   0   4   0   0   0   0   0   0   0   6   0   0   0   0   8   0   0  17 101 100 99 98 97 95 94 87 79 76 74 72 71 65 59 55 53 
   5   0   5   0   0   0   0   6   0   0   0   0   0   0   0   0   0   0   0   0   0   0   0   6   0   0   5   0   0   6   0   9 94 78 75 72 67 65 60 45 41 
   5   0   0   0   0   0   0   3   0   5   0   0   0   9   0   0   3   0   0   4   0   7   0   0   0   0   2   0   0   0   0  22 100 99 98 97 95 94 93 92 91 89 88 86 85 77 76 75 74 73 71 70 65 61 
   6   0   0   0   0   0   0   0   6   0   5   0   0   0   0   0   0   0   0   0   0   6   0   0   0   0   5   0   0   0   6  19 100 99 98 96 93 92 91 90 89 86 78 75 74 72 71 70 66 60 48 
   4   0   0   0   0   0   0   7   0   9   0   4   0   0   8   0   0   0   0   0   0   0   0   0   0   0   0   0   0   0   0  17 98 96 95 93 92 89 78 76 74 73 72 71 66 65 62 58 56 
   1   0   0   0   0   0   0   0   0   0   0   0   5   8   0   0   0   0   0   0   0   0   0   9   0   0   0   0   0   9   7  15 96 92 91 90 78 74 72 71 66 65 62 58 55 50 48 
   4   0   0   0   0   4   1   0   0   0   6   0   0   0   0   0   0   0   0   0   0   0   0   0   0   0   0   0   4   0   0  14 99 94 89 85 79 75 73 71 68 66 65 63 58 51 
  10   0   0   0   0   0   0   0   6   0   0   0   0   0   0   0   0   0   0   0   0   0   0   0   0   0   0   0   0   7   0  10 91 77 74 73 68 66 65 64 58 43 
   4   6   0   0   0   0   0   0   0   5   0   0   5   0   0   0   0   0   5   0   0   0   0   0   0   0   0   0  10   0   0  10 96 94 91 89 73 69 65 58 56 50 
   5   0   0   0   0   0   0  10   9   0   0   0   0   0   0   0   0   0   0   8   0   0   0   0   0   0   0   0   0   0   0  16 101 97 94 93 92 91 90 89 88 77 75 73 72 70 66 60 
   4   0  10   2   0   0   6   0   0   0   0   0   0   0   0   0   0   0   0   0   0   0   0   0   0  10   0   0   0   0   0  15 99 97 96 93 91 90 89 85 78 72 70 67 66 65 58 
   6   0   0   0   0   0   0   3   0   0   6   8   0   0   0   0   0   0   0   0   0   0   0   0   0   0   0   0   0   7   6  13 101 100 93 92 90 86 75 72 71 70 65 60 48 
   2   0   0   0   0   0   0   0   8   0   0   0   0   0   9   0   0   0   0   6   0   0   0   0   8   0   9   5   0   0   0  13 101 99 96 94 92 91 89 86 79 73 67 62 56 
   7   0   0   0   0   0   0   0   0   0   0   0   4   0   0   0   0   0   0   9   0   0   0   0   0   0   0   0   0   0   0  14 101 97 93 92 91 88 87 86 82 75 72 70 66 64 
  10   0   0   0   0   0   0   0   0   0   0   0   0   0   0   0   0   0   0   0   0   0  10   0   0   0   0   0   0   0   0  12 94 93 92 90 88 87 86 84 72 70 64 54 
   6   7   0   0   0   0   0   0   0   0   0  10   0   0   0   0   0   0   0   0   0   0   0   0   0   2   0   0   0   0   0  13 97 95 93 92 91 90 89 86 84 82 77 62 61 
   1   0   0   0   0   0   9   0   5   0   0   0   0   0   0   0   3   0   0   0   0   0   0   6   0   0   0   5   6   4   0  12 96 94 91 90 89 85 84 74 71 70 65 58 
   5   0   0   0  10   0   0   0   0   0   0   0   0   0   6   7   0   0   0   0   0   0   0   0   0   0   0   0   0   0   4  16 101 100 98 96 93 92 91 89 88 86 85 83 82 81 78 71 
   9   0   0   0   7   0   0   0   0   6   0   0   0   0   0   0   0   0   0   0   0   0   0   0   0   0   0   0   0   0   0  12 101 98 94 92 91 88 87 86 85 82 80 56 
   7   5   0   0   0   0   0   0   0   0   0   0   0   0   0   0  10   0   0   0   0   0   0   0   0   0   0   0   0   0   0  14 95 93 92 90 89 88 86 85 82 80 76 73 70 66 
   1   3   6   0   0   0   0   0   0   0   0   0   0   0   0   0   0   0   0   0   0   5   8   0   0   0   0   0   0   0   0  13 99 96 95 94 92 90 89 84 83 82 81 80 63 
  10   0   0   0   0   0   0   0   0   0   0   0   0   0   0   0   0   0   0   0   0   0   0   0   0   0   0   0   0   0   0  11 97 94 91 88 86 84 76 75 72 65 64 
   7   7   0   5   0   0   0   0   0   0   0   0   0   0   0   0   0   0   0   0  10   8   0   0   0   0   0   0   0   6   0   6 90 89 73 70 58 50 
   4   0   0   0   0   0   0   0   7   0   0   0   0   0   0   0   0   0   0   0   0   0   0   0  10   0   0   3   0   0   0   8 97 93 91 89 84 83 62 58 
   5   0   0   0   0   0   8   0   0   0   0   0   0   0   0   0   0   0   0   0   0   6   0   0   0   0   0   0   0   8   8  14 98 96 95 93 92 90 89 88 87 86 85 84 82 80 
  10   0   4   7  10   0   0   0   0   0   0   0   0   0   6   0   0   0   0   0   0   0   0   0   4   0   0   0   0   0   0  10 97 96 95 91 89 88 87 82 81 75 
   6   0   0   0   6   0   0   0   0   0   0   0   0   0   0   8   0   0   0   0   0   0   0   0   0   0   0   6   0   0   0   9 93 92 91 89 82 81 74 71 70 
   6   7   0   0   0   0   0   0   0   0   5   0   0   0   0   0   0   0   0   0   0   0   0   7   0   0   0   0   0   0   0  10 99 98 94 88 87 86 85 84 83 81 
  10   0   6   0   0   0   7   0   0   0   0   0   0   0   0   0   0   0   5   0   0   7   0   0   0   0   5   0   0   0   0  10 95 94 92 89 87 85 84 83 82 80 
   3   0   8   0   5   0   0   0   0   0   0   0   7   0   0   0   0   0   0   0   0   0   5   0   0   0   0   0   0   0   6   9 94 88 87 85 83 82 81 80 73 
   4   0   0   0   0   0   8   0   0   0   0   0   0   0   0   0   9   3   0   0   0   0   0   7   0   0   0   0   0   0   0   8 98 94 91 90 87 81 74 72 
   8   0   0   0   0   0   0   0   0   0   5   0   0   5   3   0   0   0   7   0   0   0   0   0  10   0   5   0   0   0   0   8 95 88 87 86 85 82 81 80 
   8   0   0  10   0   0   0   0   0   0   0   6   0   0   0   0   0   0   0   0   0   7   0   0   0   0   0   0   0   0   0   6 95 91 82 81 74 72 
   4   0   0   0   0   0   0   0   0   0   0   0   0   0   0   0   8   0   0   0   0   0   0   0   0   0   0   6   0   0   0   6 96 91 87 86 83 65 
   2   0   0   0   0   0   6   0   0   9   0   0   0   0   0   0   0   0   8   0   0   8   6   0   0   0   0   0   0   0   0   6 92 85 84 82 80 70 
   5   0   0   0   0   0   0   0   0   0  10   0   4   0   0   8   0   0   0   0   0   3   0   8   0   0   0   0   0   0   0   5 89 85 83 80 65 
   1   0   0   0   0   0   0   0   0   0   0   0   5   0   0   0   0   0   0   0   0   0   0   0   0   0   0   0   0   0   0   6 93 89 88 86 83 80 
  10   0   0   0   0   0   0   6   0   0   0   0   0   0   0   0   0   0   0   0   0   0   0   0   0   9   0   8   0   0   0   5 97 90 84 81 70 
   7   0   0   0   8   0   0   0   0   0   0   0   0   6   0   0   0   0   0   0   0   0   0   0   0   0   0   0   0   6   0   5 96 89 84 83 71 
   5   0   6   0   0   0   0   5   0   0   0   0   0   0   0   0   0   0   0   0   0   0   0   0   0   2   0   0   5   0   0   5 88 87 86 82 80 
   3   0   0   6   0   0   0   0   0   0   7   4   0   0   0   0   0   0   0   8   0   6   0   2   5   0   0   0   2   0   0   5 93 85 84 81 80 
   4   0   0   0   5   0   0   0   0   0   0   0   8   0   0   0   0   8   0   0   0   0   0   0   0   5   0   0   0   0   0   4 85 84 82 81 
   9   0   0   0   0   0   0   0   4   0   0  10   0   0   0   0   9   0   0   0   0   0   0   3   0   0   0   0   6   0   0   3 83 81 72 
   9   0   0   0   0   0   0   0   0   0   0   8   0   0   0   0   0   6   0   0   0   0   0   0   0   0   0   0   0   0   0   3 85 81 80 
   7   0   0   0   0   0   0   0   0   0   0   0   0   0   0   0   0   0   0   0   0   0   0   0   0   0   0   0   0   0   0   3 88 87 86 
   1   0   0   0   0   0   7   0   0   0   8   0   0   0   0   0   0   0   0   0   0   0   0   0   0   0   0   0   7   0   0   2 85 71 
   3   0   0   0   3   0   0   0   0   0   0   0   0   0   0   0   0   0   0   0   0   0   0   0   0   0   0   0   5   0   0   2 82 81 
   6   5   0   0   0   0   0   0   0   0   0   0   0   0   0   0   0   0   0   0   0   0   0   0   0   0   0   0   0   0   0   2 84 81 
   2   0   0   0   0   0   0   0   0   0   0   0   0   0   0   0   0   5   0   0   0   0   0   0   7   0   0   0   0   0   0   2 82 80 
   8   0   0   0   0   0   0   0   0   7   0   4   0   0   0   0   0   0   6   0   0   0   0  10   0   0   0   9   6   0   0   2 82 80 
   7   0   0   0   0   0   0   0   6   0   0   0   0   0   0   6   0   0   5   0   8   0   0   0   0   0   8   0   0   0   0   2 92 86 
   8   0   0   0   0   0   0   0   0   4   0  10   0   0   0   0   0   0   9   0   0   9   0   0   2   0   0   0   8   0   0   1 83 
  10   0   0   0   0   0   0   0   4   0   0   0   7   0   0   0   3   0   0   0   0   0   4   0   0   7   0   0  10   0   0   1 80 
  10   0   0   0   0   0   0   0   0   0   0   6   0   0   0   0   0   0   0   0   0   0   6   0   0   0   0   0   0   0   0   1 80 
   2   4   0   6   0   4   0   0   0   0   0   0   0   0   0   0   0   0   0   0   0   0   0   7   0   0   0   0   0   0   0   1 84 
   7   0   0   0   0   0   0   0   0   0   0   5   0   0   0   0   0   5   0   0   0   9   0   0   0   0   0   0   0   0   0   1 83 
   1   0   7   5   0   0   7   0   0   0   0   0   0   0   5   6   0   0   0   0   0   0   0   0   0   0   0   0   0   0   9   1 80 
   6   0   0   0   0   9   4   0   7   0   0   0   0   0   0   7   0   0   0   0   0   0   0   0   0   6   0   0   0   0   0   1 81 
   3   0   0   0   0   0   0   0   0   0   0   0   0   6   0   6   0   0   0   0   0   0   0   0   0   0   0   0   0   0   0   1 87 
   4   0   0  10   0   0   4   6   0   0   0   0   0   0  10   0   0   0   0   0   0   8   5   0   0   9   0   0   0   0   0   1 84 
   4   2   6   0   0   0   0   0   0   0   0   0   0   0   0   0   0   0   5   0   0   0   0   0   3   0   0   7   0   0   0   1 90 
   3   0   0   0   0   6   0   0   0   0   0   0   0   0   0   0   0   0   7   0   0   0   0   0   0   0   8   0   0   0   0   1 102
   4   0   0   0   6   0   0   0   0   0   0   0   0  10   0   0   0   5   0   0   0   0   0   0   0   0   8   0   0   0   0   1 102
  10   0   0   3   0   0   0   0   0   6   0   4   0   0   0   0   0   0   0   0   3   0   0   0   0   0   0   0   0   0   0   1 102
   3   0   0   0   0   0   0   0   0   0   0   4   0   0   8   0   5   0   0  10   0   0   0   0   0   0   0   0   0   0   0   1 102
   6   0   0   0   0   7   0   0   9   6   0   0   6   0   4   0   0   0   0   0   0   0   0   0   0   0   0   0   0   0   0   1 102
   5   0   0   0   0   0   0   0   0   0   0   0   0   0   0   0   0   0   0   0   0   0   8   0   0   0   4   0   0   9   0   1 102
   1   8   0   6   0   0   0   0   4   0   0   0   0   0   0   0   0   0   0   0   0   0   0   0   8   0   0   0   0   3   0   1 102
   6   0   0   0   0   0   0   0   0   4   0   0   9   0   0   0   0   0   0   2   0   0   0   4   0   0   0   5   0   0   0   1 102
   9   0   0   0   0   0   0   0   6   0   0   0   0   0   0   0   0  10   0   0   0   0   0   0   0   0   0   0   0   0   0   1 102
   1   0   0   0   0   0   0   0   0   0   0   6   0   0   0   0   0   0   0   0   8   9   0   0   0   0   0   0   0   0   0   1 102
   8   0   0   0   0   0   0   0   0   0   4   5   0   0   0   0   0   0   7   0   0   0   0   0   0  10   0   0   0   0   0   1 102
   4   0   0   0   0   0   0   0   0   0   0   0   8   0   0   0   0   0   8   0   0   0   0   0   0   0   0   0   0   0   0   1 102
   7   0   0   0  10   0   0   0   0   0   0   0   0   0   0   0   4   0   0   0   0   0   0   0   0   0   0   0   0   0   0   1 102
   9   0   0   0   0   8   0   0   0   0   0   0   0   0   0   6   0   0   0   0   0   6   0   0   6   0   0   0   0   0   0   1 102
   8   0   0   0   0   0   0   0   0   6   0   0   0   5   0   0   0   0   0   0   0   0   0   0   7  10   0   0   0   0   0   1 102
   8   0   0   0   8   0   0  10   0   0   0   0   0   0   7   0   0   0   0   5   0   0   0   0   0   0   0   0   0   4   0   1 102
   5   0   0   0   0   6   0   0   0   0   0   0   0   0   0   0   0   8   0   0   0   4   0   0   0   0   7   0   0   0   0   1 102
   1   0   7   0   0   0   0   7   0  10   0   0   0   0   0   0   0   4   0   0   0   0   0  10   0   0   0   9   0   7   0   1 102
   2  10   0   0   0   6   0   0   0   0   0   0   0   0   0   0   0   0   0   0   0   0   0   0   0   0   0   0   0   0   8   1 102
   1   0   0   0   0   0   0   0   0   0   0   0   0   4   0   0   0  10   0   0   0   4   0   0   0   0   8   0   4   9   0   1 102
   4   0   8   0   0   0   5   9   5   0   0   0   0   0   0   0   0   0   0   0   0   0   5   0   0   2   0   8   0   0   0   1 102
   3   0   1   0   0   0   0   0   0   0   8   0   0   0   0   7   0   0   0   0   6   0   0   3   0   0   0   0   0   0   0   1 102
   0   0   0   0   0   0   0   0   0   0   0   0   0   0   0   0   0   0   0   0   0   0   0   0   0   0   0   0   0   0   0   0 
